# Solution for model r5_t27_m5_5 Batch Number: 3
# Finished Task: 27 / 27
# Makespan: 731.0, Total Distance: 572.0, Total Time: 8.7613
# R O S F Batch
0 0 11 0.0 0.0 -1
1 1 16 0.0 0.0 -1
2 2 12 0.0 0.0 -1
3 3 15 0.0 0.0 -1
4 4 7 0.0 0.0 -1
5 1 13 544.0 583.0 1
6 0 25 535.0 567.0 0
7 4 8 132.0 161.0 0
8 4 28 161.0 193.0 0
9 3 17 412.0 450.0 0
10 4 27 425.0 462.0 0
11 0 19 314.0 336.0 0
12 2 24 251.0 283.0 0
13 1 29 613.0 644.0 2
14 2 20 489.0 518.0 0
15 3 9 374.0 404.0 0
16 1 21 271.0 295.0 0
17 3 23 553.0 583.0 0
18 0 6 492.0 514.0 0
19 0 26 393.0 419.0 0
20 2 31 583.0 613.0 2
21 1 5 402.0 425.0 1
22 4 -1 613.0 643.0 2
23 3 30 634.0 673.0 2
24 2 14 283.0 314.0 0
25 0 -1 633.0 654.0 2
26 0 18 453.0 478.0 0
27 4 22 553.0 583.0 0
28 4 10 373.0 395.0 0
29 1 -1 693.0 731.0 2
30 3 -1 692.0 731.0 2
31 2 -1 650.0 686.0 2
